NAME : sample18
COMMENT : Sample dataset with 18 nodes
COMMENT : Derived from Zainab
TYPE : TSP
DIMENSION : 18
EDGE_WEIGHT_TYPE : EUC_2D
NODE_COORD_SECTION
1 10 20
2 30 40
3 50 60
4 70 80
5 90 100
6 20 10
7 40 30
8 60 50
9 80 70
10 100 90
11 15 25
12 35 45
13 55 65
14 75 85
15 95 105
16 25 15
17 45 35
18 65 55
EOF
